TCS_Benchmarks/redos_fix/snort3_output_distinct_4148_4147_0_0.txt
((.|\n|\r)*)([ILOilo]+)
((.|\n|\r)*)([ILOilo]+)